nN = 5;
nR = 15;
nH = 1;

a = [[19, 5, 10, 12, 14, 24, 16, 18, 12, 12, 17, 5, 6, 12, 7], [8, 5, 6, 23, 6, 7, 23, 10, 8, 19, 6, 8, 21, 24, 7], [10, 25, 22, 10, 16, 6, 13, 10, 23, 6, 14, 15, 17, 12, 25], [12, 11, 24, 16, 10, 20, 11, 23, 11, 7, 22, 8, 18, 9, 14], [14, 18, 9, 17, 6, 25, 10, 7, 12, 17, 21, 6, 10, 16, 24]];
c = [[[0, 0, 0, 0, 0, 0, 0, 0, 0, 0, 0, 0, 0, 0, 0], [41, 40, 36, 37, 41, 33, 49, 38, 39, 47, 42, 40, 45, 46, 37], [34, 39, 33, 33, 39, 31, 33, 43, 48, 49, 42, 44, 44, 40, 37], [40, 33, 30, 45, 38, 32, 31, 45, 30, 35, 33, 44, 47, 41, 50], [34, 48, 49, 43, 32, 42, 44, 33, 50, 49, 36, 38, 34, 39, 45]], [[0, 0, 0, 0, 0, 0, 0, 0, 0, 0, 0, 0, 0, 0, 0], [0, 0, 0, 0, 0, 0, 0, 0, 0, 0, 0, 0, 0, 0, 0], [40, 30, 47, 45, 47, 44, 44, 30, 47, 37, 34, 46, 32, 38, 45], [32, 34, 30, 32, 35, 48, 48, 46, 40, 43, 42, 43, 49, 50, 31], [42, 37, 32, 39, 34, 39, 35, 44, 49, 41, 45, 46, 42, 34, 32]], [[0, 0, 0, 0, 0, 0, 0, 0, 0, 0, 0, 0, 0, 0, 0], [0, 0, 0, 0, 0, 0, 0, 0, 0, 0, 0, 0, 0, 0, 0], [0, 0, 0, 0, 0, 0, 0, 0, 0, 0, 0, 0, 0, 0, 0], [36, 32, 43, 47, 33, 44, 40, 35, 38, 45, 41, 45, 37, 41, 45], [35, 41, 36, 44, 35, 38, 34, 30, 40, 31, 30, 38, 49, 47, 46]], [[0, 0, 0, 0, 0, 0, 0, 0, 0, 0, 0, 0, 0, 0, 0], [0, 0, 0, 0, 0, 0, 0, 0, 0, 0, 0, 0, 0, 0, 0], [0, 0, 0, 0, 0, 0, 0, 0, 0, 0, 0, 0, 0, 0, 0], [0, 0, 0, 0, 0, 0, 0, 0, 0, 0, 0, 0, 0, 0, 0], [45, 31, 48, 36, 44, 48, 48, 49, 33, 40, 34, 40, 30, 42, 30]], [[0, 0, 0, 0, 0, 0, 0, 0, 0, 0, 0, 0, 0, 0, 0], [0, 0, 0, 0, 0, 0, 0, 0, 0, 0, 0, 0, 0, 0, 0], [0, 0, 0, 0, 0, 0, 0, 0, 0, 0, 0, 0, 0, 0, 0], [0, 0, 0, 0, 0, 0, 0, 0, 0, 0, 0, 0, 0, 0, 0], [0, 0, 0, 0, 0, 0, 0, 0, 0, 0, 0, 0, 0, 0, 0]]];
Q = [[34], [36], [39], [42], [29]];

q = [[[12], [24], [19], [5], [7], [5], [14], [10], [25], [11], [6], [11], [23], [25], [10]], [[5], [17], [25], [22], [15], [16], [16], [5], [8], [22], [8], [20], [5], [22], [18]], [[23], [20], [22], [5], [16], [23], [22], [12], [11], [6], [22], [16], [5], [15], [25]], [[19], [13], [5], [22], [11], [19], [25], [18], [21], [20], [19], [23], [22], [9], [13]], [[8], [21], [6], [6], [6], [6], [12], [22], [7], [17], [16], [15], [19], [12], [6]]];
p = [0.28, 0.23, 0.24, 0.2, 0.81, 0.75, 0.95, 0.78, 0.69, 0.6, 0.3, 0.28, 0.33, 0.3, 0.76];
